(set-logic QF_NRA)
(set-info :source |Benchmarks generated from hycomp (https://es-static.fbk.eu/tools/hycomp/). BMC instances of non-linear hybrid automata taken from: Alessandro Cimatti, Sergio Mover, Stefano Tonetta, A quantifier-free SMT encoding of non-linear hybrid automata, FMCAD 2012 and Alessandro Cimatti, Sergio Mover, Stefano Tonetta, Quantier-free encoding of invariants for Hybrid Systems, Formal Methods in System Design. This instance solves a BMC problem of depth 1 and uses the quantifier free encoding encoding. Contacts: Sergio Mover (mover@fbk.eu), Stefano Tonetta (tonettas@fbk.eu), Alessandro Cimatti (cimatti@fbk.eu).|)
(set-info :smt-lib-version 2.0)
(set-info :category "industrial")
(set-info :status unsat)
;; MathSAT API call trace
;; generated on Mon Mar 19 10:50:03 2012
(declare-fun b.counter.3__AT1 () Bool)
(declare-fun b.delta__AT1 () Real)
(declare-fun b.EVENT.0__AT1 () Bool)
(declare-fun b.x__AT1 () Real)
(declare-fun b.EVENT.1__AT1 () Bool)
(declare-fun b.event_is_timed__AT0 () Bool)
(declare-fun b.y__AT0 () Real)
(declare-fun b.counter.0__AT0 () Bool)
(declare-fun b.counter.1__AT0 () Bool)
(declare-fun b.EVENT.0__AT0 () Bool)
(declare-fun b.bool_atom__AT0 () Bool)
(declare-fun b.counter.2__AT0 () Bool)
(declare-fun b.speed_y__AT1 () Real)
(declare-fun b.event_is_timed__AT1 () Bool)
(declare-fun b.x__AT0 () Real)
(declare-fun b.time__AT1 () Real)
(declare-fun b.bool_atom__AT1 () Bool)
(declare-fun b.g__AT0 () Real)
(declare-fun b.EVENT.1__AT0 () Bool)
(declare-fun b.time__AT0 () Real)
(declare-fun b.delta__AT0 () Real)
(declare-fun b.counter.3__AT0 () Bool)
(declare-fun b.speed_y__AT0 () Real)
(declare-fun b.y__AT1 () Real)
(declare-fun b.counter.0__AT1 () Bool)
(declare-fun b.counter.1__AT1 () Bool)
(declare-fun b.counter.2__AT1 () Bool)
(assert (let ((.def_66 (* (- 1.0) b.g__AT0)))
(let ((.def_69 (* (/ 1 2) .def_66)))
(let ((.def_82 (* 2.0 .def_69)))
(let ((.def_88 (* (- 1.0) .def_82)))
(let ((.def_269 (* .def_88 b.delta__AT1)))
(let ((.def_270 (<= b.speed_y__AT1 .def_269)))
(let ((.def_268 (<= b.speed_y__AT1 0.0 )))
(let ((.def_271 (and .def_268 .def_270)))
(let ((.def_264 (* .def_82 b.delta__AT1)))
(let ((.def_265 (+ b.speed_y__AT1 .def_264)))
(let ((.def_266 (<= 0.0 .def_265)))
(let ((.def_263 (<= 0.0 b.speed_y__AT1)))
(let ((.def_267 (and .def_263 .def_266)))
(let ((.def_272 (or .def_267 .def_271)))
(let ((.def_254 (* b.speed_y__AT1 b.delta__AT1)))
(let ((.def_252 (* b.delta__AT1 b.delta__AT1)))
(let ((.def_253 (* .def_69 .def_252)))
(let ((.def_255 (+ .def_253 .def_254)))
(let ((.def_240 (* (- 1.0) b.x__AT1)))
(let ((.def_241 (* b.x__AT1 .def_240)))
(let ((.def_256 (* (- 1.0) .def_241)))
(let ((.def_259 (+ .def_256 .def_255)))
(let ((.def_260 (+ b.y__AT1 .def_259)))
(let ((.def_261 (<= 0.0 .def_260)))
(let ((.def_242 (<= .def_241 b.y__AT1)))
(let ((.def_262 (and .def_242 .def_261)))
(let ((.def_273 (and .def_262 .def_272)))
(let ((.def_58 (<= b.g__AT0 10.0 )))
(let ((.def_57 (<= 8.0 b.g__AT0)))
(let ((.def_59 (and .def_57 .def_58)))
(let ((.def_274 (and .def_59 .def_273)))
(let ((.def_28 (not b.counter.0__AT0)))
(let ((.def_246 (or b.counter.1__AT0 .def_28)))
(let ((.def_31 (not b.counter.2__AT0)))
(let ((.def_247 (or .def_31 .def_246)))
(let ((.def_248 (or b.counter.3__AT0 .def_247)))
(let ((.def_243 (and .def_59 .def_242)))
(let ((.def_237 (not b.EVENT.0__AT1)))
(let ((.def_235 (not b.EVENT.1__AT1)))
(let ((.def_238 (or .def_235 .def_237)))
(let ((.def_150 (not b.counter.1__AT1)))
(let ((.def_4 (not b.counter.0__AT1)))
(let ((.def_228 (or .def_4 .def_150)))
(let ((.def_232 (or b.counter.3__AT1 .def_228)))
(let ((.def_229 (or b.counter.2__AT1 .def_228)))
(let ((.def_8 (not b.counter.2__AT1)))
(let ((.def_227 (or .def_4 .def_8)))
(let ((.def_230 (and .def_227 .def_229)))
(let ((.def_167 (not b.counter.3__AT1)))
(let ((.def_231 (or .def_167 .def_230)))
(let ((.def_233 (and .def_231 .def_232)))
(let ((.def_239 (and .def_233 .def_238)))
(let ((.def_244 (and .def_239 .def_243)))
(let ((.def_222 (<= 0.0 b.delta__AT0)))
(let ((.def_47 (not b.EVENT.0__AT0)))
(let ((.def_45 (not b.EVENT.1__AT0)))
(let ((.def_96 (and .def_45 .def_47)))
(let ((.def_98 (not .def_96)))
(let ((.def_223 (or .def_98 .def_222)))
(let ((.def_224 (or b.EVENT.1__AT0 .def_223)))
(let ((.def_134 (= b.bool_atom__AT0 b.bool_atom__AT1)))
(let ((.def_129 (= b.counter.0__AT1 b.counter.0__AT0)))
(let ((.def_127 (= b.counter.1__AT1 b.counter.1__AT0)))
(let ((.def_125 (= b.counter.2__AT1 b.counter.2__AT0)))
(let ((.def_124 (= b.counter.3__AT1 b.counter.3__AT0)))
(let ((.def_126 (and .def_124 .def_125)))
(let ((.def_128 (and .def_126 .def_127)))
(let ((.def_130 (and .def_128 .def_129)))
(let ((.def_218 (and .def_130 .def_134)))
(let ((.def_219 (or .def_98 .def_218)))
(let ((.def_220 (or b.EVENT.1__AT0 .def_219)))
(let ((.def_207 (* b.delta__AT0 .def_66)))
(let ((.def_208 (* (- 1.0) b.speed_y__AT1)))
(let ((.def_211 (+ .def_208 .def_207)))
(let ((.def_212 (+ b.speed_y__AT0 .def_211)))
(let ((.def_213 (= .def_212 0.0 )))
(let ((.def_199 (* (- 1.0) b.y__AT1)))
(let ((.def_72 (* b.delta__AT0 b.speed_y__AT0)))
(let ((.def_202 (+ .def_72 .def_199)))
(let ((.def_65 (* b.delta__AT0 b.delta__AT0)))
(let ((.def_70 (* .def_65 .def_69)))
(let ((.def_203 (+ .def_70 .def_202)))
(let ((.def_204 (+ b.y__AT0 .def_203)))
(let ((.def_205 (= .def_204 0.0 )))
(let ((.def_116 (= b.x__AT0 b.x__AT1)))
(let ((.def_206 (and .def_116 .def_205)))
(let ((.def_214 (and .def_206 .def_213)))
(let ((.def_215 (or .def_98 .def_214)))
(let ((.def_119 (= b.y__AT0 b.y__AT1)))
(let ((.def_194 (and .def_116 .def_119)))
(let ((.def_122 (= b.speed_y__AT0 b.speed_y__AT1)))
(let ((.def_195 (and .def_122 .def_194)))
(let ((.def_191 (= b.delta__AT0 0.0 )))
(let ((.def_192 (and .def_96 .def_191)))
(let ((.def_193 (not .def_192)))
(let ((.def_196 (or .def_193 .def_195)))
(let ((.def_197 (or b.EVENT.1__AT0 .def_196)))
(let ((.def_184 (and .def_122 .def_130)))
(let ((.def_185 (or b.bool_atom__AT0 .def_184)))
(let ((.def_159 (or .def_4 b.counter.0__AT0)))
(let ((.def_158 (or b.counter.0__AT1 .def_28)))
(let ((.def_160 (and .def_158 .def_159)))
(let ((.def_161 (and .def_150 .def_160)))
(let ((.def_162 (or b.counter.1__AT0 .def_161)))
(let ((.def_26 (not b.counter.1__AT0)))
(let ((.def_157 (or b.counter.1__AT1 .def_26)))
(let ((.def_163 (and .def_157 .def_162)))
(let ((.def_175 (and .def_8 .def_163)))
(let ((.def_176 (or b.counter.2__AT0 .def_175)))
(let ((.def_170 (and .def_28 .def_150)))
(let ((.def_171 (or b.counter.1__AT0 .def_170)))
(let ((.def_172 (and .def_157 .def_171)))
(let ((.def_173 (and b.counter.2__AT1 .def_172)))
(let ((.def_174 (or .def_31 .def_173)))
(let ((.def_177 (and .def_174 .def_176)))
(let ((.def_178 (and b.counter.3__AT1 .def_177)))
(let ((.def_179 (or b.counter.3__AT0 .def_178)))
(let ((.def_164 (and b.counter.2__AT1 .def_163)))
(let ((.def_165 (or b.counter.2__AT0 .def_164)))
(let ((.def_153 (or b.counter.1__AT1 b.counter.1__AT0)))
(let ((.def_151 (and b.counter.0__AT1 .def_150)))
(let ((.def_152 (or .def_26 .def_151)))
(let ((.def_154 (and .def_152 .def_153)))
(let ((.def_155 (and .def_8 .def_154)))
(let ((.def_156 (or .def_31 .def_155)))
(let ((.def_166 (and .def_156 .def_165)))
(let ((.def_168 (and .def_166 .def_167)))
(let ((.def_34 (not b.counter.3__AT0)))
(let ((.def_169 (or .def_34 .def_168)))
(let ((.def_180 (and .def_169 .def_179)))
(let ((.def_147 (* b.speed_y__AT0 b.speed_y__AT0)))
(let ((.def_146 (* b.speed_y__AT1 b.speed_y__AT1)))
(let ((.def_148 (= .def_146 .def_147)))
(let ((.def_144 (+ b.speed_y__AT0 b.speed_y__AT1)))
(let ((.def_145 (= .def_144 0.0 )))
(let ((.def_149 (and .def_145 .def_148)))
(let ((.def_181 (and .def_149 .def_180)))
(let ((.def_143 (not b.bool_atom__AT0)))
(let ((.def_182 (or .def_143 .def_181)))
(let ((.def_81 (<= 0.0 b.speed_y__AT0)))
(let ((.def_140 (not .def_81)))
(let ((.def_52 (* (- 1.0) b.x__AT0)))
(let ((.def_53 (* b.x__AT0 .def_52)))
(let ((.def_139 (= b.y__AT0 .def_53)))
(let ((.def_141 (and .def_139 .def_140)))
(let ((.def_142 (= b.bool_atom__AT0 .def_141)))
(let ((.def_183 (and .def_142 .def_182)))
(let ((.def_186 (and .def_183 .def_185)))
(let ((.def_187 (and .def_116 .def_186)))
(let ((.def_188 (and .def_119 .def_187)))
(let ((.def_189 (or .def_96 .def_188)))
(let ((.def_190 (or b.EVENT.1__AT0 .def_189)))
(let ((.def_198 (and .def_190 .def_197)))
(let ((.def_216 (and .def_198 .def_215)))
(let ((.def_103 (= b.time__AT0 b.time__AT1)))
(let ((.def_117 (and .def_103 .def_116)))
(let ((.def_120 (and .def_117 .def_119)))
(let ((.def_123 (and .def_120 .def_122)))
(let ((.def_131 (and .def_123 .def_130)))
(let ((.def_135 (and .def_131 .def_134)))
(let ((.def_136 (or .def_45 .def_135)))
(let ((.def_106 (* (- 1.0) b.time__AT1)))
(let ((.def_109 (+ b.delta__AT0 .def_106)))
(let ((.def_110 (+ b.time__AT0 .def_109)))
(let ((.def_111 (= .def_110 0.0 )))
(let ((.def_112 (or .def_98 .def_111)))
(let ((.def_113 (or b.EVENT.1__AT0 .def_112)))
(let ((.def_104 (or .def_96 .def_103)))
(let ((.def_105 (or b.EVENT.1__AT0 .def_104)))
(let ((.def_114 (and .def_105 .def_113)))
(let ((.def_137 (and .def_114 .def_136)))
(let ((.def_100 (= .def_98 b.event_is_timed__AT1)))
(let ((.def_97 (= b.event_is_timed__AT0 .def_96)))
(let ((.def_101 (and .def_97 .def_100)))
(let ((.def_138 (and .def_101 .def_137)))
(let ((.def_217 (and .def_138 .def_216)))
(let ((.def_221 (and .def_217 .def_220)))
(let ((.def_225 (and .def_221 .def_224)))
(let ((.def_226 (and .def_45 .def_225)))
(let ((.def_245 (and .def_226 .def_244)))
(let ((.def_249 (and .def_245 .def_248)))
(let ((.def_89 (* b.delta__AT0 .def_88)))
(let ((.def_90 (<= b.speed_y__AT0 .def_89)))
(let ((.def_87 (<= b.speed_y__AT0 0.0 )))
(let ((.def_91 (and .def_87 .def_90)))
(let ((.def_83 (* b.delta__AT0 .def_82)))
(let ((.def_84 (+ b.speed_y__AT0 .def_83)))
(let ((.def_85 (<= 0.0 .def_84)))
(let ((.def_86 (and .def_81 .def_85)))
(let ((.def_92 (or .def_86 .def_91)))
(let ((.def_73 (+ .def_70 .def_72)))
(let ((.def_74 (* (- 1.0) .def_53)))
(let ((.def_77 (+ .def_74 .def_73)))
(let ((.def_78 (+ b.y__AT0 .def_77)))
(let ((.def_79 (<= 0.0 .def_78)))
(let ((.def_54 (<= .def_53 b.y__AT0)))
(let ((.def_80 (and .def_54 .def_79)))
(let ((.def_93 (and .def_80 .def_92)))
(let ((.def_94 (and .def_59 .def_93)))
(let ((.def_60 (and .def_54 .def_59)))
(let ((.def_48 (or .def_45 .def_47)))
(let ((.def_38 (or .def_26 .def_28)))
(let ((.def_42 (or b.counter.3__AT0 .def_38)))
(let ((.def_39 (or b.counter.2__AT0 .def_38)))
(let ((.def_37 (or .def_28 .def_31)))
(let ((.def_40 (and .def_37 .def_39)))
(let ((.def_41 (or .def_34 .def_40)))
(let ((.def_43 (and .def_41 .def_42)))
(let ((.def_49 (and .def_43 .def_48)))
(let ((.def_61 (and .def_49 .def_60)))
(let ((.def_29 (and .def_26 .def_28)))
(let ((.def_32 (and .def_29 .def_31)))
(let ((.def_35 (and .def_32 .def_34)))
(let ((.def_23 (= b.y__AT0 10.0 )))
(let ((.def_19 (= b.x__AT0 0.0 )))
(let ((.def_15 (= b.time__AT0 0.0 )))
(let ((.def_17 (and .def_15 b.event_is_timed__AT0)))
(let ((.def_20 (and .def_17 .def_19)))
(let ((.def_24 (and .def_20 .def_23)))
(let ((.def_36 (and .def_24 .def_35)))
(let ((.def_62 (and .def_36 .def_61)))
(let ((.def_6 (or .def_4 b.counter.1__AT1)))
(let ((.def_9 (or .def_6 .def_8)))
(let ((.def_11 (or .def_9 b.counter.3__AT1)))
(let ((.def_12 (not .def_11)))
(let ((.def_63 (and .def_12 .def_62)))
(let ((.def_95 (and .def_63 .def_94)))
(let ((.def_250 (and .def_95 .def_249)))
(let ((.def_275 (and .def_250 .def_274)))
.def_275))))))))))))))))))))))))))))))))))))))))))))))))))))))))))))))))))))))))))))))))))))))))))))))))))))))))))))))))))))))))))))))))))))))))))))))))))))))))))))))))))))))))))))))))))))))))))))))))))))))))))))))))))))))))))))))))))))))
(check-sat)
(exit)
